c clasp version 2.1.1
c Reading from pb_200_04.cnf
c Solving...
s UNSATISFIABLE

c Models        : 0     
c Time          : 770.714s (Solving: 770.01s 1st Model: 0.00s Unsat: 770.01s)
c CPU Time      : 769.470s
c Choices       : 4031990
c Conflicts     : 2161040
c Restarts      : 2449   (Average: 882.42 Last: 6269)

c Variables     : 195657 (Eliminated: 60211 Frozen:    0)
c Constraints   : 211373 (Binary: 65.9% Ternary: 32.7% Other:  1.4%)
c Lemmas        : 2161039 (Binary:  0.1% Ternary:  0.2% Other: 99.8%)
c   Conflict    : 2161039 (Average Length: 81.4) 
c   Loop        : 0      (Average Length: 0.0) 
c   Other       : 0      (Average Length: 0.0)
c   Deleted     : 2099621
